problems/random/rand9.tsp
NAME: rand9
TYPE: TSP
COMMENT: Random instance with 9 nodes, seed 42
DIMENSION: 9
EDGE_WEIGHT_TYPE: EUC_2D
NODE_COORD_SECTION
1 103 436
2 861 271
3 107 72
4 701 21
5 615 122
6 467 215
7 331 459
8 88 373
9 100 872
EOF
