problems/random/rand9.opt.tour
NAME: rand9
TYPE: TOUR
DIMENSION: 9
TOUR_SECTION
1
8
3
6
5
4
2
7
9
-1
EOF
